[[72, 81, 71, 70, 69, 80, 78, 79, 88, 89, 90, 99, 98, 97, 96], [87, 86, 95, 94, 93, 92, 91, 83, 82, 73, 84, 85, 76, 77], [75, 74, 66, 67, 68, 59, 58, 49, 57, 56, 65, 64, 55], [46, 47, 48, 40, 39, 38, 37, 28, 29, 30, 31, 21], [19, 20, 11, 10, 2, 3, 4, 12, 14, 13, 22, 23, 24], [15, 16, 5, 6, 7, 8, 9, 18, 17, 25, 26, 27, 35, 36], [44, 34, 43, 33, 32, 42, 41, 50, 60, 51, 52, 53, 45, 54, 63, 61, 62]]